============================[ Problem Statistics ]=============================|                                                                             ||  Number of variables:          4242                                         ||  Number of clauses:            9992                                         ||  Parse time:                   0.39 s                                       ||                                                                             |============================[ Search Statistics ]==============================| Conflicts |          ORIGINAL         |          LEARNT          | Progress ||           |    Vars  Clauses Literals |    Limit  Clauses Lit/Cl |          |===============================================================================|       100 |    1591     6197   606828 |     2272      100     53 | 62.501 % |===============================================================================restarts              : 3conflicts             : 220            (379 /sec)decisions             : 487            (0.00 % random) (840 /sec)propagations          : 11692          (20159 /sec)conflict literals     : 16009          (95.04 % deleted)CPU time              : 0.58 sSATISFIABLE